\ Model Classifica
\ LP format - for model browsing. Use MPS format to capture full model detail.
Minimize
  x[0] + x[1] + x[2] + x[3] + x[4] + x[5] + x[6] + x[7] + x[8] + x[9]
   + x[10] + x[11] + x[12] + x[13] + x[14] + x[15] + x[16] + x[17] + x[18]
   + x[19] + x[20] + x[21] + x[22] + x[23] + x[24] + x[25] + x[26] + x[27]
   + x[28] + x[29] + x[30] + x[31] + x[32] + x[33]
Subject To
 c3_4_0: x[0] + x[3] + x[4] >= 1
 c3_8_0: x[0] + x[3] + x[8] >= 1
 c3_16_0: x[0] + x[3] + x[16] >= 1
 c3_16_5: x[3] + x[5] + x[16] >= 1
 c3_24_0: x[0] + x[3] + x[24] >= 1
 c4_8_0: x[0] + x[4] + x[8] >= 1
 c4_12_0: x[0] + x[4] + x[12] >= 1
 c4_14_0: x[0] + x[4] + x[14] >= 1
 c4_14_19: x[4] + x[14] + x[19] >= 1
 c4_15_0: x[0] + x[4] + x[15] >= 1
 c4_15_19: x[4] + x[15] + x[19] >= 1
 c4_20_0: x[0] + x[4] + x[20] >= 1
 c4_20_19: x[4] + x[19] + x[20] >= 1
 c4_24_0: x[0] + x[4] + x[24] >= 1
 c4_29_0: x[0] + x[4] + x[29] >= 1
 c4_29_19: x[4] + x[19] + x[29] >= 1
 c8_12_0: x[0] + x[8] + x[12] >= 1
 c8_16_0: x[0] + x[8] + x[16] >= 1
 c8_16_5: x[5] + x[8] + x[16] >= 1
 c8_24_0: x[0] + x[8] + x[24] >= 1
 c12_14_0: x[0] + x[12] + x[14] >= 1
 c12_14_19: x[12] + x[14] + x[19] >= 1
 c12_15_0: x[0] + x[12] + x[15] >= 1
 c12_15_19: x[12] + x[15] + x[19] >= 1
 c12_16_0: x[0] + x[12] + x[16] >= 1
 c12_16_5: x[5] + x[12] + x[16] >= 1
 c12_20_0: x[0] + x[12] + x[20] >= 1
 c12_20_19: x[12] + x[19] + x[20] >= 1
 c12_24_0: x[0] + x[12] + x[24] >= 1
 c12_29_0: x[0] + x[12] + x[29] >= 1
 c12_29_19: x[12] + x[19] + x[29] >= 1
 c14_16_0: x[0] + x[14] + x[16] >= 1
 c14_16_5: x[5] + x[14] + x[16] >= 1
 c15_16_0: x[0] + x[15] + x[16] >= 1
 c15_16_5: x[5] + x[15] + x[16] >= 1
 c16_20_0: x[0] + x[16] + x[20] >= 1
 c16_20_19: x[16] + x[19] + x[20] >= 1
 c16_24_0: x[0] + x[16] + x[24] >= 1
 c16_29_0: x[0] + x[16] + x[29] >= 1
 c16_29_19: x[16] + x[19] + x[29] >= 1
 c24_29_23: x[23] + x[24] + x[29] >= 1
 c0_23_8: x[0] + x[8] + x[23] >= 1
 c5_23_8: x[5] + x[8] + x[23] >= 1
 c21_23_8: x[8] + x[21] + x[23] >= 1
Bounds
Binaries
 x[0] x[1] x[2] x[3] x[4] x[5] x[6] x[7] x[8] x[9] x[10] x[11] x[12] x[13]
 x[14] x[15] x[16] x[17] x[18] x[19] x[20] x[21] x[22] x[23] x[24] x[25]
 x[26] x[27] x[28] x[29] x[30] x[31] x[32] x[33]
End
